tsp_component/tsp_opt_sols/st70.opt.tsp.sol
NAME : st70
COMMENT :  optimal TSP tour (length = 710)
TYPE : TOUR CEIL_2D
DIMENSION : 70
TOUR_SECTION
1
36
23
13
29
70
35
69
31
38
59
22
66
63
57
15
24
19
7
2
4
18
42
32
3
8
26
55
49
28
14
20
30
44
68
27
46
45
25
39
61
40
9
17
43
41
6
53
5
10
52
60
12
21
34
33
62
54
48
67
11
64
65
56
51
50
58
37
47
16
-1
EOF
